Solver command line: ['/usr/local/bin/gurobi.sh']

Set parameter WLSAccessID
Set parameter WLSSecret
Set parameter LicenseID to value 2606900
Academic license 2606900 - for non-commercial use only - registered to so___@htwk-leipzig.de
Read LP format model from file /var/folders/jf/5sh4zzv94dxbcz8g7tg2jq5h0000gn/T/tmpgt6ryws5.pyomo.lp
Reading time = 3.82 seconds
objective: 939890 rows, 878399 columns, 2116928 nonzeros
Set parameter TimeLimit to value 1000
Set parameter MIPGap to value 0.08
Gurobi Optimizer version 12.0.1 build v12.0.1rc0 (mac64[rosetta2] - Darwin 24.3.0 24D70)

CPU model: Apple M3
Thread count: 8 physical cores, 8 logical processors, using up to 8 threads

Non-default parameters:
TimeLimit  1000
MIPGap  0.08

Academic license 2606900 - for non-commercial use only - registered to so___@htwk-leipzig.de
Optimize a model with 939890 rows, 878399 columns and 2116928 nonzeros
Model fingerprint: 0x9143fd4a
Model has 8783 quadratic constraints
Variable types: 755424 continuous, 122975 integer (105408 binary)
Coefficient statistics:
  Matrix range     [6e-03, 1e+03]
  QMatrix range    [1e+00, 1e+00]
  Objective range  [1e-02, 4e+02]
  Bounds range     [1e+00, 3e+00]
  RHS range        [8e-05, 1e+04]
Presolve removed 773016 rows and 676389 columns
Presolve time: 0.80s
Presolved: 166874 rows, 202010 columns, 553336 nonzeros
Variable types: 131741 continuous, 70269 integer (61485 binary)
Performing another presolve...
Presolve removed 70271 rows and 70270 columns (presolve time = 8s)...
Presolve removed 70271 rows and 70270 columns
Presolve time: 8.47s
Deterministic concurrent LP optimizer: primal and dual simplex
Showing primal log only...


Root simplex log...

Iteration    Objective       Primal Inf.    Dual Inf.      Time
       0    1.1808867e+06   1.171376e+08   8.481845e+13     11s
Concurrent spin time: 11.80s (can be avoided by choosing Method=3)

Solved with dual simplex

Root simplex log...

Iteration    Objective       Primal Inf.    Dual Inf.      Time
   57142   -2.8240730e+07   0.000000e+00   0.000000e+00     24s

Root relaxation: objective -2.824073e+07, 57142 iterations, 13.80 seconds (1.97 work units)
Total elapsed time = 24.18s (DegenMoves)
Total elapsed time = 25.01s (DegenMoves)

    Nodes    |    Current Node    |     Objective Bounds      |     Work
 Expl Unexpl |  Obj  Depth IntInf | Incumbent    BestBd   Gap | It/Node Time

     0     0 -2.824e+07    0  275          - -2.824e+07      -     -   26s
     0     0 -2.824e+07    0  288          - -2.824e+07      -     -   57s
     0     0 -2.824e+07    0  264          - -2.824e+07      -     -   58s
     0     0 -2.824e+07    0  266          - -2.824e+07      -     -   58s
     0     0 -2.824e+07    0  266          - -2.824e+07      -     -   58s
     0     0 -2.823e+07    0  310          - -2.823e+07      -     -   59s
     0     0 -2.823e+07    0  304          - -2.823e+07      -     -   60s
     0     0 -2.823e+07    0  306          - -2.823e+07      -     -   60s
     0     0 -2.823e+07    0  317          - -2.823e+07      -     -   60s
     0     0 -2.823e+07    0  338          - -2.823e+07      -     -   61s
     0     0 -2.823e+07    0  346          - -2.823e+07      -     -   62s
     0     0 -2.823e+07    0  347          - -2.823e+07      -     -   62s
     0     0 -2.823e+07    0  359          - -2.823e+07      -     -   63s
     0     0 -2.823e+07    0  361          - -2.823e+07      -     -   63s
     0     0 -2.823e+07    0  361          - -2.823e+07      -     -   64s
     0     0 -2.823e+07    0  363          - -2.823e+07      -     -   64s
     0     0 -2.823e+07    0  354          - -2.823e+07      -     -   65s
     0     0 -2.823e+07    0  302          - -2.823e+07      -     -   66s
     0     2 -2.823e+07    0  290          - -2.823e+07      -     -   79s
    15    24 -2.823e+07    4  334          - -2.823e+07      -   147   80s
   183   385 -2.823e+07   19  335          - -2.823e+07      -  16.1   86s
   384  1041 -2.823e+07   37  326          - -2.823e+07      -   9.3   94s
  1040  1534 -2.823e+07   96  299          - -2.823e+07      -   6.4  100s
  1533  2133 -2.823e+07  134  293          - -2.823e+07      -   6.7  107s
  2132  2890 -2.823e+07  181  302          - -2.823e+07      -   8.5  114s
  2889  3452 -2.823e+07  252  295          - -2.823e+07      -   8.0  120s
  3451  4274 -2.823e+07  294  262          - -2.823e+07      -   7.9  127s
  4273  4986 -2.823e+07  378  258          - -2.823e+07      -   7.3  133s
  4985  5657 -2.823e+07  468  245          - -2.823e+07      -   7.2  138s
  5656  6140 -2.823e+07  554  245          - -2.823e+07      -   6.7  143s
  6139  6544 -2.823e+07  592  239          - -2.823e+07      -   6.6  148s
  6543  6928 -2.823e+07  660  235          - -2.823e+07      -   6.4  152s
  6927  7280 -2.823e+07  698  234          - -2.823e+07      -   6.3  156s
  7282  7282 -2.823e+07  540  287          - -2.823e+07      -   6.4  201s
  7287  7286 -2.823e+07  623  333          - -2.823e+07      -   6.4  205s
  7292  7289 -2.823e+07  287  306          - -2.823e+07      -   6.4  211s
  7297  7292 -2.823e+07  277  355          - -2.823e+07      -   6.4  215s
  7302  7296 -2.823e+07  266  369          - -2.823e+07      -   6.4  220s
  7307  7299 -2.823e+07  288  350          - -2.823e+07      -   6.4  225s
  7310  7301 -2.823e+07  591  345          - -2.823e+07      -   6.3  232s
  7312  7302 -2.823e+07   48  354          - -2.823e+07      -   6.3  235s
  7314  7304 -2.823e+07  743  356          - -2.823e+07      -   6.3  243s
  7318  7308 -2.823e+07  420 13175          - -2.823e+07      -  15.3  245s
  7320  7309 -2.823e+07   42  287          - -2.823e+07      -  15.3  291s
  7326  7313 -2.823e+07  550  355          - -2.823e+07      -  15.3  295s
  7328  7315 -2.823e+07  244  352          - -2.823e+07      -  15.3  301s
  7332  7317 -2.823e+07  119  365          - -2.823e+07      -  15.3  305s
  7337  7321 -2.823e+07  350  363          - -2.823e+07      -  15.3  310s
  7338  7321 -2.823e+07  786  361          - -2.823e+07      -  15.3  315s
  7342  7324 -2.823e+07  501  363          - -2.823e+07      -  15.3  320s
  7344  7325 -2.823e+07  273  303          - -2.823e+07      -  15.3  326s
  7345  7326 -2.823e+07  462  303          - -2.823e+07      -  15.3  337s
  7346  7330 -2.823e+07   23  290          - -2.823e+07      -  32.9  340s
H 7348  6966                    -2.47144e+07 -2.823e+07  14.2%  32.9  343s
H 7349  6617                    -2.55706e+07 -2.823e+07  10.4%  32.9  343s
H 7350  6285                    -2.56674e+07 -2.823e+07  10.0%  32.9  343s
H 7351  5971                    -2.57001e+07 -2.823e+07  9.85%  32.9  343s
H 7352  5680                    -2.57012e+07 -2.823e+07  9.85%  32.9  346s
  7368  5772 -2.823e+07   27  281 -2.570e+07 -2.823e+07  9.85%  32.9  353s
  7458  5843 -2.823e+07   33  274 -2.570e+07 -2.823e+07  9.85%  32.7  360s
  7559  6046 -2.823e+07   39  264 -2.570e+07 -2.823e+07  9.85%  32.5  374s
H 7569  5758                    -2.57512e+07 -2.823e+07  9.64%  32.5  374s
H 7637  5467                    -2.67458e+07 -2.823e+07  5.56%  32.3  374s

Cutting planes:
  Learned: 1
  Gomory: 189
  Cover: 223
  Implied bound: 64
  Projected implied bound: 84
  MIR: 308
  Mixing: 3
  Flow cover: 205
  RLT: 25
  Relax-and-lift: 68

Explored 7795 nodes (249301 simplex iterations) in 374.91 seconds (175.82 work units)
Thread count was 8 (of 8 available processors)

Solution count 7: -2.67458e+07 -2.57512e+07 -2.57012e+07 ... -2.47144e+07

Optimal solution found (tolerance 8.00e-02)
Best objective -2.674577553194e+07, best bound -2.823263075889e+07, gap 5.5592%

